500
[100,101,102,104,105,106,107,108,109,110,111,112,113,114,115,116,117,118,120,121,123,124,125,126,127,129,131,133,134,135,136,137,138,139,140,141,142,144,145,146,147,148,149,150,151,152,153,155,156,157,160,161,165,167,168,169,170,172,173,174,175,177,179,181,182,184,185,188,189,191,192,193,194,195,196,197,198,199,200,202,203,204,205,206,207,208,209,210,211,213,214,215,216,217,218,219,220,222,223,224,225,226,229,230,232,233,234,235,236,239,240,241,242,243,244,246,248,249,250,251,253,254,255,256,257,258,259,260,261,262,263,264,265,266,268,269,270,271,272,274,275,276,277,278,279,280,281,282,283,284,285,286,290,292,293,294,295,296,299,300,301,302,303,304,306,308,309,310,312,313,314,316,318,319,320,321,322,323,324,325,326,328,329,330,331,332,333,335,337,338,339,340,341,342,343,345,346,347,348,349,350]
[3,1,2,4,1,2,3,2,1,1,2,1,4,1,1,3,1,3,2,2,2,2,1,2,1,1,1,4,5,1,1,2,1,3,3,1,4,4,1,2,2,4,1,1,1,2,3,1,1,3,1,1,3,2,3,1,3,2,6,2,1,2,2,2,5,1,2,1,2,1,1,1,2,2,1,1,1,2,1,1,2,1,2,2,1,1,2,2,5,1,1,1,1,3,3,2,4,1,2,1,2,2,3,1,3,6,2,1,1,1,1,1,2,3,2,4,1,3,1,2,1,1,2,2,1,2,3,3,3,9,3,3,1,3,2,2,2,2,4,2,1,1,1,3,1,2,1,4,2,1,5,1,1,1,1,1,1,2,1,2,1,7,2,2,1,3,2,1,4,1,3,2,1,2,4,3,1,1,1,2,1,1,1,1,2,2,3,2,1,1,1,2,2,1,2,3,1,2,1,2,3]
